p cnf 20 20
-8 -2 -9 0
-3 -15 17 0
-18 -9 -11 0
-1 -20 17 0
5 7 9 0
20 4 16 0
-5 13 19 0
-19 10 -8 0
-11 -7 -19 0
-2 15 -18 0
-16 13 14 0
-20 18 11 0
5 11 14 0
-10 17 -7 0
17 -5 -1 0
12 -8 10 0
5 -12 -15 0
19 20 2 0
-13 -5 15 0
-9 3 12 0
